p wcnf 8 25 121
121 1 2 0
121 1 4 0
121 1 5 0
121 1 7 0
121 1 8 0
121 2 3 0
121 2 5 0
121 2 7 0
121 3 4 0
121 3 6 0
121 4 5 0
121 4 7 0
121 5 6 0
121 5 7 0
121 6 7 0
121 6 8 0
121 7 8 0
12 -1 0
13 -2 0
14 -3 0
13 -4 0
12 -5 0
13 -6 0
11 -7 0
14 -8 0
